benchmarks/denorm/lcm/lcm_denorm_inv1_len4_4.smt2
;--------------------------------------------------------------------------
; Benchmark created with Zazu
; Benchmark: 		lcm_denorm_inv1_len4_4
; Created:   		2022-01-05 21:28
; Generator of the ideal: 
; 		 -u00*x00 + u*x + v*y - v00*y00
; Testing invariant: (-u00*x00 + u*x + v*y - v00*y00) * (u^2*v*y + u^3*x^3*y^2 + u*v^3*y + u^3*v*x^2*y)
;--------------------------------------------------------------------------

(set-logic NIA)
(set-option :produce-proofs true)

(declare-const u00 Int)
(declare-const v00 Int)
(declare-const x00 Int)
(declare-const y00 Int)

(assert 
	(exists
		((u Int) (v Int) (x Int) (y Int))
		(and
			(= (- (+ (* (- 1) u00 x00) (* u x) (* v y)) (* v00 y00)) 0)

			(or
				(not (= (* (- (+ (* (- 1) u00 x00) (* u (- x y)) (* (+ v u) y)) (* v00 y00)) (+ (* u u (+ v u) y) (* u u u (- x y) (- x y) (- x y) y y) (* u (+ v u) (+ v u) (+ v u) y) (* u u u (+ v u) (- x y) (- x y) y))) 0))
				(not (= (* (- (+ (* (- 1) u00 x00) (* (+ u v) x) (* v (- y x))) (* v00 y00)) (+ (* (+ u v) (+ u v) v (- y x)) (* (+ u v) (+ u v) (+ u v) x x x (- y x) (- y x)) (* (+ u v) v v v (- y x)) (* (+ u v) (+ u v) (+ u v) v x x (- y x)))) 0))
			)
		)
	)
)
(check-sat)
(get-proof)
(exit)
